100
3511
39 194
49 125
30 16
66 107
68 59
15 84
4 136
68 96
6 57
54 16
84 31
34 93
96 68
66 143
58 15
89 103
18 165
69 113
62 197
46 179
33 167
48 112
40 116
30 164
75 129
16 60
90 152
57 92
80 116
52 188
6 151
35 84
96 55
16 162
39 193
39 56
78 42
65 77
69 138
54 166
21 43
7 170
95 21
87 99
34 177
3 45
82 180
28 143
61 145
1 173
2 95
63 29
20 96
37 46
44 50
64 70
84 88
83 73
10 76
46 109
94 149
96 40
51 111
98 20
33 41
83 154
39 22
40 169
2 179
26 81
46 136
65 128
13 119
81 66
63 55
25 141
59 11
38 154
39 119
42 20
100 190
31 180
40 52
77 41
29 168
84 149
96 134
26 20
43 56
13 59
66 141
91 179
38 126
37 37
26 171
65 49
89 152
30 172
27 26
64 121
